73
120
96	4
95	10
94	8
93	12
92	10
91	12
90	13
89	10
88	7
87	11
86	6
85	10
84	16
83	5
82	10
81	17
80	7
79	9
78	10
77	8
76	14
75	12
74	4
73	8
72	7
71	11
70	6
69	6
68	9
67	15
66	10
65	8
64	11
63	17
62	8
61	13
60	5
59	6
58	10
57	11
56	9
55	8
54	8
53	6
52	8
51	7
50	15
49	6
48	9
47	10
46	14
45	8
44	15
43	9
42	8
41	7
40	12
39	12
38	16
37	12
36	16
35	11
34	11
33	13
32	8
31	10
30	8
29	13
28	13
27	19
26	11
25	13
24	19
